80 8
58 75
10 81
90 29
97 9
6 99
40 77
23 21
72 11
20 81
83 6
77 22
84 84
29 83
83 6
20 18
43 10
8 32
92 65
97 23
83 61
41 81
4 66
80 56
99 62
41 43
79 86
34 51
26 23
44 60
66 3
29 79
50 84
96 96
1 16
19 77
95 49
99 56
35 66
87 31
28 22
13 10
24 87
84 31
34 2
84 33
51 64
73 21
83 93
81 40
63 29
58 91
21 56
86 39
99 13
40 46
22 96
76 87
61 43
50 56
18 19
38 13
84 21
94 53
46 32
10 46
55 79
65 75
100 25
14 53
100 76
54 58
66 90
59 20
62 80
11 44
64 2
7 29
78 67
74 15
3 7
464 535
474 558
533 635
666 765
413 504
512 599
406 502
614 719
